echo            screen
variable        dcdfreq index 50
variable        outputname index pep_solv_minimization

units           real
boundary        p p p

newton          off
pair_style      lj/charmmfsw/coul/long 10 12
pair_modify     mix arithmetic
kspace_style    pppm 1e-6

atom_style      full
bond_style      harmonic
angle_style     charmm
dihedral_style  charmmfsw
special_bonds   charmm
improper_style  harmonic
timestep        1

read_data       pep_solv_input.data

neighbor        2 bin
neigh_modify    delay 5 every 1
dump            mydmp all atom 100 ${outputname}.lammpstrj

#velocity       all create 298.15 12658 dist gaussian
thermo          ${dcdfreq}
thermo_style    custom step time xlo xhi ylo yhi zlo zhi vol temp density press etotal pe ke ebond eangle edihed eimp evdwl ecoul elong

#------minimization
log             log.${outputname} append
min_style       cg
minimize        0.0 1.0e-8 10000 20000

write_data     ${outputname}.data pair ij
write_dump     all custom ${outputname}.dump id type element mass x y z vx vy vz ix iy iz
write_dump     all xyz ${outputname}.xyz modify sort id element H H H H C C C C N N O O Na Cl
