echo            screen
variable        dcdfreq index 2500
variable        outputname index pep_solv_equilibration
variable        inputname  index pep_solv_minimization
units           real
boundary        p p p

newton          off
pair_style      lj/charmmfsw/coul/long 10 12
pair_modify     mix arithmetic
kspace_style    pppm 1e-6

atom_style      full
bond_style      harmonic
angle_style     charmm
dihedral_style  charmmfsw
special_bonds   charmm
improper_style  harmonic
timestep        1

read_data       pep_solv_input.data

variable        laststep file ${inputname}.dump
next            laststep
read_dump       ${inputname}.dump ${laststep}  x y z vx vy vz ix iy iz box yes replace yes format native

neighbor        2 bin
neigh_modify    delay 5 every 1
dump            mydmp all atom 100 ${outputname}.lammpstrj

velocity       all create 298.15 12658 dist gaussian

fix             1 all shake 1e-6 500 ${dcdfreq} m 1.008 a 15
fix             2 all npt temp 298.15 298.15 100.0 z 0.0 0.0 100.0

thermo          ${dcdfreq}
thermo_style    custom step time xlo xhi ylo yhi zlo zhi vol temp density press etotal pe ke ebond eangle edihed eimp evdwl ecoul elong

log             log.${outputname} append


reset_timestep  0
run             40000
write_data     ${outputname}.data pair ij
write_dump     all custom ${outputname}.dump id type element mass x y z vx vy vz ix iy iz
write_dump     all xyz ${outputname}.xyz modify sort id element H H H H C C C C N N O O Na Cl
