echo screen
variable        outputname index 3_minimization
variable        inputname index 2_solv_surf_arg_closer
#------initialization
units 		real
boundary   p p p

newton          off
pair_style      lj/charmmfsw/coul/long 10 12
pair_modify     mix arithmetic
kspace_style    pppm 1e-6

atom_style 	full
bond_style      harmonic
angle_style     charmm
dihedral_style  charmmfsw
special_bonds   charmm
improper_style  harmonic
timestep        1

read_data       ${inputname}.data

group          solv_sol type <= 14
group          gold  type 15

neigh_modify   exclude group gold gold
dump           mydmp all atom 100 ${outputname}.lammpstrj

fix            1 gold setforce 0 0 NULL
fix            2 gold aveforce NULL NULL 0
fix		         myrct all recenter NULL NULL INIT

thermo         50
thermo_style   custom step time xlo xhi ylo yhi zlo zhi vol temp density press etotal pe ke ebond eangle edihed eimp evdwl ecoul elong
#------minimization
log            log.${outputname} append
min_style      cg
minimize       0.0 1.0e-8 300000 3000000

write_data     ${outputname}.data pair ij
write_dump     all custom ${outputname}.dump id type element mass x y z vx vy vz ix iy iz
write_dump     all xyz ${outputname}.xyz modify sort id element H H H H C C C C N N O O Na Cl Au
