echo            screen
variable        outputname index 3_equilibration
variable        inputname index 3_minimization
#------initialization
units 		      real
boundary        p p p

newton          off
pair_style      lj/charmmfsw/coul/long 10 12
pair_modify     mix arithmetic
kspace_style    pppm 1e-6

atom_style 	    full
bond_style      harmonic
angle_style     charmm
dihedral_style  charmmfsw
special_bonds   charmm
improper_style  harmonic
timestep        1

read_data       ${inputname}.data
#variable       laststep file ${inputname}.dump
#next           laststep
#read_dump      ${inputname}.dump ${laststep}  x y z vx vy vz ix iy iz box yes replace yes format native

group          solv_sol type <= 14
group          gold  type 15
dump 	         	mydmp all atom 500 ${outputname}.lammpstrj

neighbor        2 bin
neigh_modify    exclude group gold gold
velocity        solv_sol create 298.15.0 4928459 rot yes dist gaussian
fix             1 gold setforce 0 0 NULL

fix             2 all shake 1e-6 500 200 a 15 b 6
fix             3 solv_sol npt temp 298.15 298.15 100.0 z 0.0 0.0 100.0
fix		          myrct all recenter NULL NULL INIT

thermo          100
thermo_style    custom step time xlo xhi ylo yhi zlo zhi vol temp density press etotal pe ke ebond eangle edihed eimp evdwl ecoul elong

log             log.${outputname} append
reset_timestep  0
run             40000

write_data      ${outputname}.data pair ij
write_dump      all custom ${outputname}.dump id type element mass x y z vx vy vz ix iy iz
write_dump      all xyz ${outputname}.xyz modify sort id element H H H H C C C C N N O O Na Cl Au
