echo screen
variable        outputname index 2_solv_surf_closer_111

#------initialization
units 		real
boundary   p p p

newton          off
pair_style      lj/charmmfsw/coul/long 10 12
pair_modify     mix arithmetic
kspace_style    pppm 1e-6

atom_style 	    full
bond_style      harmonic
angle_style     charmm
dihedral_style  charmmfsw
special_bonds   charmm
improper_style  harmonic
timestep        1

lattice         fcc 4.0782 orient x 1 -2 1 orient y 1 0 -1 orient z 1 1 1
region          box block -10.094 10.094 -9.99 9.99 -34.912 18.785 units box
create_box      3 box &
                bond/types 1 &
                angle/types 1 &
                extra/bond/per/atom 2 &
                extra/angle/per/atom 1 &
                extra/special/per/atom 2

#-------- add the waterbox
region          water block -10.093 10.093 -9.99 9.99 -18.7850 18.7850 units box
group           waterbox region water
read_data       solvent.data add merge group waterbox
#--------- create the lattice
region          gold block -10.093 10.093 -9.99 9.99 -34.912 -20.785 units box
create_atoms    3 region gold
mass            3 197
group           au region gold

pair_coeff      3 3 5.29 2.629

#delete_atoms   overlap 2.0 waterbox au bond yes
info            region
dump 	         	mydmp all image 10 dump.*2.jpg type type
thermo_style    custom step time xlo xhi ylo yhi zlo zhi vol temp density press etotal pe ke ebond eangle edihed eimp evdwl ecoul elong

# ------------- run
run	           	10
write_data	    ${outputname}.data pair ij
write_dump      all custom ${outputname}.dump id type element mass x y z vx vy vz ix iy iz
write_dump      all xyz ${outputname}.xyz modify sort id element O H Au
