echo            screen
variable        dcdfreq index 2500
variable        outputname index solv_production
variable        inputname  index solv_equilibration

units           real
boundary        p p p

newton          off
pair_style      lj/charmmfsw/coul/long 10 12
pair_modify     mix arithmetic
kspace_style    pppm 1e-6

atom_style      full
bond_style      harmonic
angle_style     charmm
dihedral_style  charmmfsw
special_bonds   charmm
improper_style  harmonic
timestep        1

read_data       ${inputname}.data

#variable        laststep file ${inputname}.dump
#next            laststep
#read_dump       ${inputname}.dump ${laststep}  x y z vx vy vz ix iy iz box yes replace yes format native

neighbor        2 bin
neigh_modify    delay 5 every 1
dump           mydmp all atom 100 ${outputname}.lammpstrj

fix             1 all shake 1e-6 500 ${dcdfreq} m 1.008 a 1
fix             2 all nvt temp 298.15 298.15 100.0

thermo          100
thermo_style    custom step time xlo xhi ylo yhi zlo zhi vol temp density press etotal pe ke ebond eangle edihed eimp evdwl ecoul elong
variable        E_t equal etotal
variable        time equal time*0.001
fix             write1 all print 100 "${time} ${E_t}" file ${outputname}energy.dump screen no

variable        pressure equal press
fix             write2 all print 100 "${time} ${pressure}" file ${outputname}pressure.dump screen no

variable        rho equal density
fix             write3 all print 100 "${time} ${rho}" file ${outputname}density.dump screen no

log            log.${outputname} append
reset_timestep  0
run             100000

write_data      ${outputname}.data
write_dump      all custom ${outputname}.dump id type x y z vx vy vz ix iy iz
write_dump      all xyz ${outputname}.xyz modify sort id element O H
