echo            screen
variable        outputname index production_111
variable        inputname index equilibration_111
#------initialization
units 		      real
boundary        p p p

newton          off
pair_style      lj/charmmfsw/coul/long 10 12
pair_modify     mix arithmetic
kspace_style    pppm 1e-6

atom_style 	    full
bond_style      harmonic
angle_style     charmm
dihedral_style  charmmfsw
special_bonds   charmm
improper_style  harmonic
timestep        1

read_data       ${inputname}.data
#variable       laststep file ${inputname}.dump
#next           laststep
#read_dump      ${inputname}.dump ${laststep}  x y z vx vy vz ix iy iz box yes replace yes format native

group          solv_sol type <= 14
group          gold  type 15
dump 	         	mydmp all atom 500 ${outputname}.lammpstrj

neighbor        2 bin
neigh_modify    exclude group gold gold
#velocity       all create 298.15.0 4928459 rot yes dist gaussian
fix             1 gold setforce 0 0 NULL
fix             s gold aveforce NULL NULL 0

fix             2 all shake 1e-6 500 200 a 15 b 6
fix             3 solv_sol nvt temp 298.15 298.15 100.0
fix		          myrct all recenter NULL NULL INIT

thermo          100
thermo_style    custom step time xlo xhi ylo yhi zlo zhi vol temp density press etotal pe ke ebond eangle edihed eimp evdwl ecoul elong

variable        E_t equal etotal
variable        time equal time*0.001
fix             write1 all print 100 "${time} ${E_t}" file ${outputname}energy.dump screen no

variable        pressure equal press
fix             write2 all print 100 "${time} ${pressure}" file ${outputname}pressure.dump screen no

variable        rho equal density
fix             write3 all print 100 "${time} ${rho}" file ${outputname}density.dump screen no

log             log.${outputname} append

reset_timestep  0
run             100000

write_data      ${outputname}.data pair ij
write_dump      all custom ${outputname}.dump id type element mass x y z vx vy vz ix iy iz
write_dump      all xyz ${outputname}.xyz modify sort id element H H H H C C C C N N O O Na Cl Au
