echo screen
variable        outputname index 2_solv_surf_arg_closer

#------initialization
units 		real
boundary   p p p

newton          off
pair_style      lj/charmmfsw/coul/long 10 12
pair_modify     mix arithmetic
kspace_style    pppm 1e-6

atom_style 	    full
bond_style      harmonic
angle_style     charmm
dihedral_style  charmmfsw
special_bonds   charmm
improper_style  harmonic
timestep        1

lattice         fcc 4.0782 orient x 1 -2 1 orient y 1 0 -1 orient z 1 1 1
region          box block -10.094 10.094 -9.99 9.99 -37.864 20.7370 units box
create_box      15 box &
                bond/types 12 &
                angle/types 23 &
                dihedral/types 20 &
                improper/types 3 &
                extra/bond/per/atom 12 &
                extra/angle/per/atom 23 &
                extra/dihedral/per/atom 29 &
                extra/improper/per/atom 3 &
               extra/special/per/atom 2

#-------- add the waterbox
region          watarg block -10.093 10.093 -9.99 9.99 -20.7370 20.7370  units box
group           gwatarg region watarg
read_data       arginine_solvent.data add merge group gwatarg
#--------- create the lattice
region          gold block -10.093 10.093 -9.99 9.99 -37.864 -23.7370 units box
create_atoms    15 region gold
mass            15 197
group           au region gold

pair_coeff      15 15 5.29 2.629

#delete_atoms   overlap 2.0 waterbox au bond yes
info            region
dump 	         	mydmp all image 10 dump.*2.jpg type type
thermo_style    custom step time xlo xhi ylo yhi zlo zhi vol temp density press etotal pe ke ebond eangle edihed eimp evdwl ecoul elong

# ------------- run
run	           	10
write_data	    ${outputname}.data pair ij
write_dump      all custom ${outputname}.dump id type element mass x y z vx vy vz ix iy iz
write_dump      all xyz ${outputname}.xyz modify sort id element H H H H C C C C N N O O Na Cl Au
